Maximize
	+ 2.3 x1 + 4.5 x2 + 1.5 x3 + 5.4 x4 + 2.9 x5 + 3.2 x6
Subject To
	+ 30 y1,1 + 70 y2,1 + 20 y3,1 + 80 y4,1 + 35 y5,1 + 40 y6,1 <= 100
	+ 30 y1,2 + 70 y2,2 + 20 y3,2 + 80 y4,2 + 35 y5,2 + 40 y6,2 <= 60
	+ y1,1 + y1,2 – x1 = 0
	+ y2,1 + y2,2 – x2 = 0
	+ y3,1 + y3,2 – x3 = 0
	+ y4,1 + y4,2 – x4 = 0
	+ y5,1 + y5,2 – x5 = 0
	+ y6,1 + y6,2 – x6 = 0
Binary
	x1 x2 x3 x4 x5 x6
	y1,1 y1,2 y2,1 y2,2 y3,1 y3,2 y4,1 y4,2 y5,1 y5,2 y6,1 y6,2
End